NAME : ClusterId_259 
COMMENT : (Gillet and Johnson) 
TYPE : CVRP 
DIMENSION : 4 
EDGE_WEIGHT_TYPE : EUC_2D 
CAPACITY : 500 
NODE_COORD_SECTION 
259 40 80 
48 25 91 
56 28 93 
176 31 85 
DEMAND_SECTION 
259 80
48 8
56 5
176 67
DEPOT_SECTION 
259
 -1
EOF